param:	TIME:	Ts	Te:=
1	0   108
2	108   216
3	216   324
4	324   432
5	432   540
;
param:	NODE:	r	st	WS	WE:=
0	0	0	0	540
1	1209	13	87	430
2	1233	14	44	367
3	1788	20	45	378
4	1746	19	15	366
5	636	7	15	344
6	990	11	58	377
7	2061	23	27	355
8	630	7	53	393
9	990	11	53	371
10	2091	23	51	391
;
param: VEHICLE:	Ch	Lh	Ph	ch:=
1	10000	150	2.2384e-005	2.66374
2	15000	200	1.79961e-005	2.66374
3	10000	150	2.2384e-005	2.66374
;
param q_real:=2;
param	nth:=9;
param	nth1:=10;
param:	ARC:	D:=
1	5	9.160000
1	2	25.200001
1	10	28.620001
1	7	46.880001
1	6	87.300003
1	3	88.190002
1	9	95.790001
1	8	96.550003
1	4	135.449997
2	1	24.049999
2	7	28.240000
2	5	31.049999
2	10	37.020000
2	8	79.721001
2	3	90.449997
2	6	98.309998
2	9	110.959999
2	4	112.990997
3	6	47.689999
3	10	63.810001
3	8	74.120003
3	7	74.879997
3	9	76.529999
3	5	81.680000
3	1	88.360001
3	2	90.169998
3	4	116.610001
4	8	44.439999
4	7	90.900002
4	2	112.331001
4	3	116.400002
4	10	124.559998
4	1	134.729996
4	5	139.149994
4	6	140.050003
4	9	169.160004
5	1	9.380000
5	10	22.600000
5	2	31.670000
5	7	48.509998
5	6	78.970001
5	3	81.910004
5	9	87.220001
5	8	97.739998
5	4	138.889999
6	9	38.750000
6	3	47.889999
6	10	64.910004
6	5	78.610001
6	1	87.470001
6	7	95.129997
6	8	97.809998
6	2	97.910004
6	4	140.300003
7	2	27.990000
7	10	38.119999
7	1	46.880001
7	5	48.540001
7	8	55.150002
7	3	75.000000
7	4	90.820000
7	6	94.339996
7	9	112.760002
8	4	44.470001
8	7	54.630001
8	3	73.470001
8	2	78.390999
8	10	83.360001
8	1	96.510002
8	6	97.120003
8	5	97.940002
8	9	126.230003
9	6	38.799999
9	3	76.690002
9	10	78.470001
9	5	86.450996
9	1	95.630997
9	2	110.972000
9	7	113.209999
9	8	126.750000
9	4	169.240005
10	5	22.290001
10	1	29.580000
10	2	37.580002
10	7	39.320000
10	3	61.779999
10	6	62.540001
10	9	75.889999
10	8	83.029999
10	4	123.720001
0	3	31.900000
0	8	43.849998
0	7	56.720001
0	6	57.419998
0	10	61.470001
0	5	79.180000
0	2	79.889999
0	1	82.690002
0	9	86.260002
0	4	86.339996
3	0	32.029999
8	0	42.980000
7	0	56.619999
6	0	57.860001
10	0	59.110001
5	0	78.220001
2	0	79.680000
1	0	82.059998
4	0	85.910004
9	0	86.660004
;
param:	v:=
1	5	1	75
1	5	2	31
1	5	3	16
1	5	4	54
1	5	5	76
1	2	1	86
1	2	2	33
1	2	3	21
1	2	4	31
1	2	5	100
1	10	1	88
1	10	2	42
1	10	3	10
1	10	4	30
1	10	5	84
1	7	1	88
1	7	2	53
1	7	3	18
1	7	4	40
1	7	5	96
1	6	1	79
1	6	2	45
1	6	3	10
1	6	4	43
1	6	5	85
1	3	1	84
1	3	2	60
1	3	3	25
1	3	4	46
1	3	5	91
1	9	1	96
1	9	2	41
1	9	3	16
1	9	4	38
1	9	5	70
1	8	1	99
1	8	2	49
1	8	3	30
1	8	4	31
1	8	5	87
1	4	1	91
1	4	2	41
1	4	3	18
1	4	4	31
1	4	5	95
2	1	1	95
2	1	2	57
2	1	3	22
2	1	4	48
2	1	5	72
2	7	1	86
2	7	2	57
2	7	3	26
2	7	4	59
2	7	5	76
2	5	1	80
2	5	2	37
2	5	3	26
2	5	4	41
2	5	5	96
2	10	1	92
2	10	2	54
2	10	3	13
2	10	4	52
2	10	5	84
2	8	1	97
2	8	2	54
2	8	3	30
2	8	4	56
2	8	5	97
2	3	1	94
2	3	2	44
2	3	3	22
2	3	4	48
2	3	5	87
2	6	1	73
2	6	2	52
2	6	3	23
2	6	4	57
2	6	5	75
2	9	1	89
2	9	2	35
2	9	3	22
2	9	4	38
2	9	5	77
2	4	1	95
2	4	2	50
2	4	3	17
2	4	4	30
2	4	5	78
3	6	1	76
3	6	2	60
3	6	3	15
3	6	4	30
3	6	5	93
3	10	1	87
3	10	2	31
3	10	3	19
3	10	4	38
3	10	5	83
3	8	1	80
3	8	2	42
3	8	3	18
3	8	4	32
3	8	5	86
3	7	1	74
3	7	2	31
3	7	3	10
3	7	4	40
3	7	5	89
3	9	1	91
3	9	2	40
3	9	3	23
3	9	4	57
3	9	5	86
3	5	1	81
3	5	2	54
3	5	3	14
3	5	4	49
3	5	5	77
3	1	1	87
3	1	2	44
3	1	3	26
3	1	4	35
3	1	5	92
3	2	1	100
3	2	2	30
3	2	3	23
3	2	4	51
3	2	5	75
3	4	1	72
3	4	2	38
3	4	3	24
3	4	4	56
3	4	5	87
4	8	1	80
4	8	2	30
4	8	3	30
4	8	4	50
4	8	5	71
4	7	1	91
4	7	2	55
4	7	3	13
4	7	4	34
4	7	5	71
4	2	1	89
4	2	2	53
4	2	3	27
4	2	4	53
4	2	5	97
4	3	1	98
4	3	2	58
4	3	3	20
4	3	4	43
4	3	5	73
4	10	1	82
4	10	2	50
4	10	3	26
4	10	4	30
4	10	5	95
4	1	1	94
4	1	2	56
4	1	3	27
4	1	4	39
4	1	5	96
4	5	1	80
4	5	2	55
4	5	3	18
4	5	4	35
4	5	5	70
4	6	1	90
4	6	2	53
4	6	3	11
4	6	4	32
4	6	5	81
4	9	1	98
4	9	2	49
4	9	3	19
4	9	4	30
4	9	5	77
5	1	1	76
5	1	2	39
5	1	3	26
5	1	4	40
5	1	5	84
5	10	1	85
5	10	2	43
5	10	3	28
5	10	4	59
5	10	5	75
5	2	1	88
5	2	2	33
5	2	3	30
5	2	4	53
5	2	5	74
5	7	1	85
5	7	2	59
5	7	3	24
5	7	4	53
5	7	5	89
5	6	1	79
5	6	2	46
5	6	3	24
5	6	4	37
5	6	5	86
5	3	1	84
5	3	2	52
5	3	3	30
5	3	4	54
5	3	5	89
5	9	1	89
5	9	2	58
5	9	3	22
5	9	4	58
5	9	5	85
5	8	1	83
5	8	2	54
5	8	3	25
5	8	4	60
5	8	5	76
5	4	1	89
5	4	2	59
5	4	3	24
5	4	4	38
5	4	5	87
6	9	1	92
6	9	2	52
6	9	3	30
6	9	4	44
6	9	5	81
6	3	1	71
6	3	2	35
6	3	3	23
6	3	4	40
6	3	5	79
6	10	1	73
6	10	2	58
6	10	3	27
6	10	4	44
6	10	5	73
6	5	1	75
6	5	2	45
6	5	3	20
6	5	4	54
6	5	5	83
6	1	1	71
6	1	2	49
6	1	3	10
6	1	4	47
6	1	5	86
6	7	1	70
6	7	2	40
6	7	3	17
6	7	4	33
6	7	5	95
6	8	1	92
6	8	2	57
6	8	3	23
6	8	4	50
6	8	5	85
6	2	1	83
6	2	2	31
6	2	3	30
6	2	4	33
6	2	5	88
6	4	1	90
6	4	2	42
6	4	3	18
6	4	4	36
6	4	5	91
7	2	1	73
7	2	2	49
7	2	3	22
7	2	4	51
7	2	5	92
7	10	1	77
7	10	2	47
7	10	3	11
7	10	4	58
7	10	5	97
7	1	1	72
7	1	2	35
7	1	3	14
7	1	4	33
7	1	5	88
7	5	1	75
7	5	2	48
7	5	3	14
7	5	4	59
7	5	5	75
7	8	1	93
7	8	2	53
7	8	3	28
7	8	4	30
7	8	5	83
7	3	1	98
7	3	2	50
7	3	3	16
7	3	4	55
7	3	5	81
7	4	1	100
7	4	2	53
7	4	3	14
7	4	4	35
7	4	5	82
7	6	1	81
7	6	2	39
7	6	3	12
7	6	4	36
7	6	5	71
7	9	1	83
7	9	2	54
7	9	3	19
7	9	4	45
7	9	5	93
8	4	1	94
8	4	2	39
8	4	3	18
8	4	4	44
8	4	5	71
8	7	1	91
8	7	2	54
8	7	3	19
8	7	4	60
8	7	5	89
8	3	1	70
8	3	2	52
8	3	3	21
8	3	4	58
8	3	5	97
8	2	1	87
8	2	2	31
8	2	3	20
8	2	4	54
8	2	5	91
8	10	1	74
8	10	2	34
8	10	3	29
8	10	4	39
8	10	5	81
8	1	1	93
8	1	2	37
8	1	3	29
8	1	4	54
8	1	5	76
8	6	1	74
8	6	2	31
8	6	3	24
8	6	4	31
8	6	5	80
8	5	1	90
8	5	2	30
8	5	3	26
8	5	4	53
8	5	5	76
8	9	1	79
8	9	2	44
8	9	3	28
8	9	4	32
8	9	5	73
9	6	1	74
9	6	2	41
9	6	3	15
9	6	4	35
9	6	5	100
9	3	1	75
9	3	2	35
9	3	3	17
9	3	4	43
9	3	5	75
9	10	1	90
9	10	2	58
9	10	3	28
9	10	4	30
9	10	5	93
9	5	1	92
9	5	2	60
9	5	3	30
9	5	4	56
9	5	5	96
9	1	1	77
9	1	2	38
9	1	3	14
9	1	4	37
9	1	5	96
9	2	1	97
9	2	2	57
9	2	3	27
9	2	4	48
9	2	5	71
9	7	1	92
9	7	2	52
9	7	3	10
9	7	4	49
9	7	5	95
9	8	1	92
9	8	2	55
9	8	3	12
9	8	4	52
9	8	5	81
9	4	1	97
9	4	2	49
9	4	3	21
9	4	4	58
9	4	5	86
10	5	1	81
10	5	2	31
10	5	3	21
10	5	4	42
10	5	5	73
10	1	1	98
10	1	2	45
10	1	3	15
10	1	4	53
10	1	5	98
10	2	1	76
10	2	2	30
10	2	3	26
10	2	4	37
10	2	5	87
10	7	1	96
10	7	2	57
10	7	3	19
10	7	4	36
10	7	5	89
10	3	1	94
10	3	2	56
10	3	3	16
10	3	4	46
10	3	5	100
10	6	1	80
10	6	2	57
10	6	3	14
10	6	4	59
10	6	5	73
10	9	1	74
10	9	2	38
10	9	3	16
10	9	4	51
10	9	5	87
10	8	1	87
10	8	2	49
10	8	3	18
10	8	4	30
10	8	5	96
10	4	1	96
10	4	2	50
10	4	3	14
10	4	4	55
10	4	5	81
0	3	1	97
0	3	2	52
0	3	3	25
0	3	4	57
0	3	5	82
0	8	1	86
0	8	2	50
0	8	3	19
0	8	4	51
0	8	5	72
0	7	1	81
0	7	2	46
0	7	3	12
0	7	4	58
0	7	5	76
0	6	1	74
0	6	2	36
0	6	3	15
0	6	4	51
0	6	5	98
0	10	1	91
0	10	2	34
0	10	3	18
0	10	4	32
0	10	5	90
0	5	1	80
0	5	2	52
0	5	3	25
0	5	4	52
0	5	5	92
0	2	1	91
0	2	2	31
0	2	3	15
0	2	4	38
0	2	5	82
0	1	1	75
0	1	2	57
0	1	3	22
0	1	4	43
0	1	5	89
0	9	1	72
0	9	2	32
0	9	3	10
0	9	4	41
0	9	5	79
0	4	1	82
0	4	2	58
0	4	3	16
0	4	4	42
0	4	5	87
3	0	1	72
3	0	2	55
3	0	3	27
3	0	4	33
3	0	5	79
8	0	1	96
8	0	2	31
8	0	3	20
8	0	4	49
8	0	5	93
7	0	1	96
7	0	2	53
7	0	3	10
7	0	4	42
7	0	5	99
6	0	1	77
6	0	2	36
6	0	3	25
6	0	4	59
6	0	5	89
10	0	1	83
10	0	2	30
10	0	3	14
10	0	4	42
10	0	5	74
5	0	1	74
5	0	2	49
5	0	3	21
5	0	4	60
5	0	5	84
2	0	1	96
2	0	2	59
2	0	3	18
2	0	4	52
2	0	5	88
1	0	1	92
1	0	2	36
1	0	3	24
1	0	4	49
1	0	5	90
4	0	1	96
4	0	2	45
4	0	3	11
4	0	4	47
4	0	5	91
9	0	1	95
9	0	2	31
9	0	3	27
9	0	4	37
9	0	5	97
;
param:	g:=
1	5	1	1	0.390210
1	5	1	2	0.680469
1	5	2	1	0.247702
1	5	2	2	0.293050
1	5	3	1	0.326472
1	5	3	2	0.399619
1	5	4	1	0.286163
1	5	4	2	0.374817
1	5	5	1	0.396426
1	5	5	2	0.700458
1	2	1	1	0.464402
1	2	1	2	0.927456
1	2	2	1	0.246353
1	2	2	2	0.289331
1	2	3	1	0.280358
1	2	3	2	0.346196
1	2	4	1	0.247702
1	2	4	2	0.293050
1	2	5	1	0.576712
1	2	5	2	1.327989
1	10	1	1	0.479240
1	10	1	2	0.978767
1	10	2	1	0.253223
1	10	2	2	0.298561
1	10	3	1	0.456768
1	10	3	2	0.513825
1	10	4	1	0.248870
1	10	4	2	0.295725
1	10	5	1	0.449973
1	10	5	2	0.878115
1	7	1	1	0.479240
1	7	1	2	0.978767
1	7	2	1	0.282583
1	7	2	2	0.365713
1	7	3	1	0.304119
1	7	3	2	0.375426
1	7	4	1	0.250135
1	7	4	2	0.292905
1	7	5	1	0.542629
1	7	5	2	1.203706
1	6	1	1	0.415716
1	6	1	2	0.763383
1	6	2	1	0.259262
1	6	2	2	0.310848
1	6	3	1	0.456768
1	6	3	2	0.513825
1	6	4	1	0.255055
1	6	4	2	0.302151
1	6	5	1	0.457136
1	6	5	2	0.902539
1	3	1	1	0.449973
1	3	1	2	0.878115
1	3	2	1	0.310446
1	3	2	2	0.439877
1	3	3	1	0.260803
1	3	3	2	0.317588
1	3	4	1	0.261626
1	3	4	2	0.315953
1	3	5	1	0.502258
1	3	5	2	1.059427
1	9	1	1	0.542629
1	9	1	2	1.203706
1	9	2	1	0.251580
1	9	2	2	0.295478
1	9	3	1	0.326472
1	9	3	2	0.399619
1	9	4	1	0.247870
1	9	4	2	0.289292
1	9	5	1	0.360770
1	9	5	2	0.587924
1	8	1	1	0.568043
1	8	1	2	1.296180
1	8	2	1	0.269695
1	8	2	2	0.334278
1	8	3	1	0.248870
1	8	3	2	0.295725
1	8	4	1	0.247702
1	8	4	2	0.293050
1	8	5	1	0.471770
1	8	5	2	0.952865
1	4	1	1	0.502258
1	4	1	2	1.059427
1	4	2	1	0.251580
1	4	2	2	0.295478
1	4	3	1	0.304119
1	4	3	2	0.375426
1	4	4	1	0.247702
1	4	4	2	0.293050
1	4	5	1	0.534355
1	4	5	2	1.173866
2	1	1	1	0.534355
2	1	1	2	1.173866
2	1	2	1	0.297717
2	1	2	2	0.405114
2	1	3	1	0.274382
2	1	3	2	0.338023
2	1	4	1	0.266846
2	1	4	2	0.327669
2	1	5	1	0.372215
2	1	5	2	0.623462
2	7	1	1	0.464402
2	7	1	2	0.927456
2	7	2	1	0.297717
2	7	2	2	0.405114
2	7	3	1	0.257483
2	7	3	2	0.312044
2	7	4	1	0.306076
2	7	4	2	0.427793
2	7	5	1	0.396426
2	7	5	2	0.700458
2	5	1	1	0.422358
2	5	1	2	0.785344
2	5	2	1	0.247069
2	5	2	2	0.288257
2	5	3	1	0.257483
2	5	3	2	0.312044
2	5	4	1	0.251580
2	5	4	2	0.295478
2	5	5	1	0.542629
2	5	5	2	1.203706
2	10	1	1	0.510132
2	10	1	2	1.087298
2	10	2	1	0.286163
2	10	2	2	0.374817
2	10	3	1	0.375359
2	10	3	2	0.446007
2	10	4	1	0.279143
2	10	4	2	0.357106
2	10	5	1	0.449973
2	10	5	2	0.878115
2	8	1	1	0.551002
2	8	1	2	1.234039
2	8	2	1	0.286163
2	8	2	2	0.374817
2	8	3	1	0.248870
2	8	3	2	0.295725
2	8	4	1	0.293733
2	8	4	2	0.394518
2	8	5	1	0.551002
2	8	5	2	1.234039
2	3	1	1	0.526181
2	3	1	2	1.144518
2	3	2	1	0.257070
2	3	2	2	0.306247
2	3	3	1	0.274382
2	3	3	2	0.338023
2	3	4	1	0.266846
2	3	4	2	0.327669
2	3	5	1	0.471770
2	3	5	2	0.952865
2	6	1	1	0.378104
2	6	1	2	0.641971
2	6	2	1	0.279143
2	6	2	2	0.357106
2	6	3	1	0.269185
2	6	3	2	0.330552
2	6	4	1	0.297717
2	6	4	2	0.405114
2	6	5	1	0.390210
2	6	5	2	0.680469
2	9	1	1	0.486811
2	9	1	2	1.005161
2	9	2	1	0.246187
2	9	2	2	0.287745
2	9	3	1	0.274382
2	9	3	2	0.338023
2	9	4	1	0.247870
2	9	4	2	0.289292
2	9	5	1	0.402749
2	9	5	2	0.720940
2	4	1	1	0.534355
2	4	1	2	1.173866
2	4	2	1	0.272696
2	4	2	2	0.341388
2	4	3	1	0.314502
2	4	3	2	0.386980
2	4	4	1	0.248870
2	4	4	2	0.295725
2	4	5	1	0.409180
2	4	5	2	0.741915
3	6	1	1	0.396426
3	6	1	2	0.700458
3	6	2	1	0.310446
3	6	2	2	0.439877
3	6	3	1	0.340328
3	6	3	2	0.413505
3	6	4	1	0.248870
3	6	4	2	0.295725
3	6	5	1	0.518107
3	6	5	2	1.115662
3	10	1	1	0.471770
3	10	1	2	0.952865
3	10	2	1	0.247702
3	10	2	2	0.293050
3	10	3	1	0.295088
3	10	3	2	0.364835
3	10	4	1	0.247870
3	10	4	2	0.289292
3	10	5	1	0.442913
3	10	5	2	0.854183
3	8	1	1	0.422358
3	8	1	2	0.785344
3	8	2	1	0.253223
3	8	2	2	0.298561
3	8	3	1	0.304119
3	8	3	2	0.375426
3	8	4	1	0.246870
3	8	4	2	0.290921
3	8	5	1	0.464402
3	8	5	2	0.927456
3	7	1	1	0.384103
3	7	1	2	0.660973
3	7	2	1	0.247702
3	7	2	2	0.293050
3	7	3	1	0.456768
3	7	3	2	0.513825
3	7	4	1	0.250135
3	7	4	2	0.292905
3	7	5	1	0.486811
3	7	5	2	1.005161
3	9	1	1	0.502258
3	9	1	2	1.059427
3	9	2	1	0.250135
3	9	2	2	0.292905
3	9	3	1	0.269185
3	9	3	2	0.330552
3	9	4	1	0.297717
3	9	4	2	0.405114
3	9	5	1	0.464402
3	9	5	2	0.927456
3	5	1	1	0.429105
3	5	1	2	0.807797
3	5	2	1	0.286163
3	5	2	2	0.374817
3	5	3	1	0.356456
3	5	3	2	0.428864
3	5	4	1	0.269695
3	5	4	2	0.334278
3	5	5	1	0.402749
3	5	5	2	0.720940
3	1	1	1	0.471770
3	1	1	2	0.952865
3	1	2	1	0.257070
3	1	2	2	0.306247
3	1	3	1	0.257483
3	1	3	2	0.312044
3	1	4	1	0.246187
3	1	4	2	0.287745
3	1	5	1	0.510132
3	1	5	2	1.087298
3	2	1	1	0.576712
3	2	1	2	1.327989
3	2	2	1	0.248870
3	2	2	2	0.295725
3	2	3	1	0.269185
3	2	3	2	0.330552
3	2	4	1	0.275847
3	2	4	2	0.348998
3	2	5	1	0.390210
3	2	5	2	0.680469
3	4	1	1	0.372215
3	4	1	2	0.623462
3	4	2	1	0.247870
3	4	2	2	0.289292
3	4	3	1	0.264683
3	4	3	2	0.323750
3	4	4	1	0.293733
3	4	4	2	0.394518
3	4	5	1	0.471770
3	4	5	2	0.952865
4	8	1	1	0.422358
4	8	1	2	0.785344
4	8	2	1	0.248870
4	8	2	2	0.295725
4	8	3	1	0.248870
4	8	3	2	0.295725
4	8	4	1	0.272696
4	8	4	2	0.341388
4	8	5	1	0.366437
4	8	5	2	0.605446
4	7	1	1	0.502258
4	7	1	2	1.059427
4	7	2	1	0.289880
4	7	2	2	0.384419
4	7	3	1	0.375359
4	7	3	2	0.446007
4	7	4	1	0.246131
4	7	4	2	0.288274
4	7	5	1	0.366437
4	7	5	2	0.605446
4	2	1	1	0.486811
4	2	1	2	1.005161
4	2	2	1	0.282583
4	2	2	2	0.365713
4	2	3	1	0.254672
4	2	3	2	0.307099
4	2	4	1	0.282583
4	2	4	2	0.365713
4	2	5	1	0.551002
4	2	5	2	1.234039
4	3	1	1	0.559473
4	3	1	2	1.264864
4	3	2	1	0.301833
4	3	2	2	0.416205
4	3	3	1	0.287219
4	3	3	2	0.355115
4	3	4	1	0.255055
4	3	4	2	0.302151
4	3	5	1	0.378104
4	3	5	2	0.641971
4	10	1	1	0.435957
4	10	1	2	0.830744
4	10	2	1	0.272696
4	10	2	2	0.341388
4	10	3	1	0.257483
4	10	3	2	0.312044
4	10	4	1	0.248870
4	10	4	2	0.295725
4	10	5	1	0.534355
4	10	5	2	1.173866
4	1	1	1	0.526181
4	1	1	2	1.144518
4	1	2	1	0.293733
4	1	2	2	0.394518
4	1	3	1	0.254672
4	1	3	2	0.307099
4	1	4	1	0.248895
4	1	4	2	0.290842
4	1	5	1	0.542629
4	1	5	2	1.203706
4	5	1	1	0.422358
4	5	1	2	0.785344
4	5	2	1	0.289880
4	5	2	2	0.384419
4	5	3	1	0.304119
4	5	3	2	0.375426
4	5	4	1	0.246187
4	5	4	2	0.287745
4	5	5	1	0.360770
4	5	5	2	0.587924
4	6	1	1	0.494484
4	6	1	2	1.032048
4	6	2	1	0.282583
4	6	2	2	0.365713
4	6	3	1	0.424417
4	6	3	2	0.487653
4	6	4	1	0.246870
4	6	4	2	0.290921
4	6	5	1	0.429105
4	6	5	2	0.807797
4	9	1	1	0.559473
4	9	1	2	1.264864
4	9	2	1	0.269695
4	9	2	2	0.334278
4	9	3	1	0.295088
4	9	3	2	0.364835
4	9	4	1	0.248870
4	9	4	2	0.295725
4	9	5	1	0.402749
4	9	5	2	0.720940
5	1	1	1	0.396426
5	1	1	2	0.700458
5	1	2	1	0.248895
5	1	2	2	0.290842
5	1	3	1	0.257483
5	1	3	2	0.312044
5	1	4	1	0.250135
5	1	4	2	0.292905
5	1	5	1	0.449973
5	1	5	2	0.878115
5	10	1	1	0.457136
5	10	1	2	0.902539
5	10	2	1	0.255055
5	10	2	2	0.302151
5	10	3	1	0.252324
5	10	3	2	0.302739
5	10	4	1	0.306076
5	10	4	2	0.427793
5	10	5	1	0.390210
5	10	5	2	0.680469
5	2	1	1	0.479240
5	2	1	2	0.978767
5	2	2	1	0.246353
5	2	2	2	0.289331
5	2	3	1	0.248870
5	2	3	2	0.295725
5	2	4	1	0.282583
5	2	4	2	0.365713
5	2	5	1	0.384103
5	2	5	2	0.660973
5	7	1	1	0.457136
5	7	1	2	0.902539
5	7	2	1	0.306076
5	7	2	2	0.427793
5	7	3	1	0.264683
5	7	3	2	0.323750
5	7	4	1	0.282583
5	7	4	2	0.365713
5	7	5	1	0.486811
5	7	5	2	1.005161
5	6	1	1	0.415716
5	6	1	2	0.763383
5	6	2	1	0.261626
5	6	2	2	0.315953
5	6	3	1	0.264683
5	6	3	2	0.323750
5	6	4	1	0.247069
5	6	4	2	0.288257
5	6	5	1	0.464402
5	6	5	2	0.927456
5	3	1	1	0.449973
5	3	1	2	0.878115
5	3	2	1	0.279143
5	3	2	2	0.357106
5	3	3	1	0.248870
5	3	3	2	0.295725
5	3	4	1	0.286163
5	3	4	2	0.374817
5	3	5	1	0.486811
5	3	5	2	1.005161
5	9	1	1	0.486811
5	9	1	2	1.005161
5	9	2	1	0.301833
5	9	2	2	0.416205
5	9	3	1	0.274382
5	9	3	2	0.338023
5	9	4	1	0.301833
5	9	4	2	0.416205
5	9	5	1	0.457136
5	9	5	2	0.902539
5	8	1	1	0.442913
5	8	1	2	0.854183
5	8	2	1	0.286163
5	8	2	2	0.374817
5	8	3	1	0.260803
5	8	3	2	0.317588
5	8	4	1	0.310446
5	8	4	2	0.439877
5	8	5	1	0.396426
5	8	5	2	0.700458
5	4	1	1	0.486811
5	4	1	2	1.005161
5	4	2	1	0.306076
5	4	2	2	0.427793
5	4	3	1	0.264683
5	4	3	2	0.323750
5	4	4	1	0.247870
5	4	4	2	0.289292
5	4	5	1	0.471770
5	4	5	2	0.952865
6	9	1	1	0.510132
6	9	1	2	1.087298
6	9	2	1	0.279143
6	9	2	2	0.357106
6	9	3	1	0.248870
6	9	3	2	0.295725
6	9	4	1	0.257070
6	9	4	2	0.306247
6	9	5	1	0.429105
6	9	5	2	0.807797
6	3	1	1	0.366437
6	3	1	2	0.605446
6	3	2	1	0.246187
6	3	2	2	0.287745
6	3	3	1	0.269185
6	3	3	2	0.330552
6	3	4	1	0.250135
6	3	4	2	0.292905
6	3	5	1	0.415716
6	3	5	2	0.763383
6	10	1	1	0.378104
6	10	1	2	0.641971
6	10	2	1	0.301833
6	10	2	2	0.416205
6	10	3	1	0.254672
6	10	3	2	0.307099
6	10	4	1	0.257070
6	10	4	2	0.306247
6	10	5	1	0.378104
6	10	5	2	0.641971
6	5	1	1	0.390210
6	5	1	2	0.680469
6	5	2	1	0.259262
6	5	2	2	0.310848
6	5	3	1	0.287219
6	5	3	2	0.355115
6	5	4	1	0.286163
6	5	4	2	0.374817
6	5	5	1	0.442913
6	5	5	2	0.854183
6	1	1	1	0.366437
6	1	1	2	0.605446
6	1	2	1	0.269695
6	1	2	2	0.334278
6	1	3	1	0.456768
6	1	3	2	0.513825
6	1	4	1	0.264155
6	1	4	2	0.321560
6	1	5	1	0.464402
6	1	5	2	0.927456
6	7	1	1	0.360770
6	7	1	2	0.587924
6	7	2	1	0.250135
6	7	2	2	0.292905
6	7	3	1	0.314502
6	7	3	2	0.386980
6	7	4	1	0.246353
6	7	4	2	0.289331
6	7	5	1	0.534355
6	7	5	2	1.173866
6	8	1	1	0.510132
6	8	1	2	1.087298
6	8	2	1	0.297717
6	8	2	2	0.405114
6	8	3	1	0.269185
6	8	3	2	0.330552
6	8	4	1	0.272696
6	8	4	2	0.341388
6	8	5	1	0.457136
6	8	5	2	0.902539
6	2	1	1	0.442913
6	2	1	2	0.854183
6	2	2	1	0.247702
6	2	2	2	0.293050
6	2	3	1	0.248870
6	2	3	2	0.295725
6	2	4	1	0.246353
6	2	4	2	0.289331
6	2	5	1	0.479240
6	2	5	2	0.978767
6	4	1	1	0.494484
6	4	1	2	1.032048
6	4	2	1	0.253223
6	4	2	2	0.298561
6	4	3	1	0.304119
6	4	3	2	0.375426
6	4	4	1	0.246504
6	4	4	2	0.287741
6	4	5	1	0.502258
6	4	5	2	1.059427
7	2	1	1	0.378104
7	2	1	2	0.641971
7	2	2	1	0.269695
7	2	2	2	0.334278
7	2	3	1	0.274382
7	2	3	2	0.338023
7	2	4	1	0.275847
7	2	4	2	0.348998
7	2	5	1	0.510132
7	2	5	2	1.087298
7	10	1	1	0.402749
7	10	1	2	0.720940
7	10	2	1	0.264155
7	10	2	2	0.321560
7	10	3	1	0.424417
7	10	3	2	0.487653
7	10	4	1	0.301833
7	10	4	2	0.416205
7	10	5	1	0.551002
7	10	5	2	1.234039
7	1	1	1	0.372215
7	1	1	2	0.623462
7	1	2	1	0.246187
7	1	2	2	0.287745
7	1	3	1	0.356456
7	1	3	2	0.428864
7	1	4	1	0.246353
7	1	4	2	0.289331
7	1	5	1	0.479240
7	1	5	2	0.978767
7	5	1	1	0.390210
7	5	1	2	0.680469
7	5	2	1	0.266846
7	5	2	2	0.327669
7	5	3	1	0.356456
7	5	3	2	0.428864
7	5	4	1	0.306076
7	5	4	2	0.427793
7	5	5	1	0.390210
7	5	5	2	0.680469
7	8	1	1	0.518107
7	8	1	2	1.115662
7	8	2	1	0.282583
7	8	2	2	0.365713
7	8	3	1	0.252324
7	8	3	2	0.302739
7	8	4	1	0.248870
7	8	4	2	0.295725
7	8	5	1	0.442913
7	8	5	2	0.854183
7	3	1	1	0.559473
7	3	1	2	1.264864
7	3	2	1	0.272696
7	3	2	2	0.341388
7	3	3	1	0.326472
7	3	3	2	0.399619
7	3	4	1	0.289880
7	3	4	2	0.384419
7	3	5	1	0.429105
7	3	5	2	0.807797
7	4	1	1	0.576712
7	4	1	2	1.327989
7	4	2	1	0.282583
7	4	2	2	0.365713
7	4	3	1	0.356456
7	4	3	2	0.428864
7	4	4	1	0.246187
7	4	4	2	0.287745
7	4	5	1	0.435957
7	4	5	2	0.830744
7	6	1	1	0.429105
7	6	1	2	0.807797
7	6	2	1	0.248895
7	6	2	2	0.290842
7	6	3	1	0.397708
7	6	3	2	0.465383
7	6	4	1	0.246504
7	6	4	2	0.287741
7	6	5	1	0.366437
7	6	5	2	0.605446
7	9	1	1	0.442913
7	9	1	2	0.854183
7	9	2	1	0.286163
7	9	2	2	0.374817
7	9	3	1	0.295088
7	9	3	2	0.364835
7	9	4	1	0.259262
7	9	4	2	0.310848
7	9	5	1	0.518107
7	9	5	2	1.115662
8	4	1	1	0.526181
8	4	1	2	1.144518
8	4	2	1	0.248895
8	4	2	2	0.290842
8	4	3	1	0.304119
8	4	3	2	0.375426
8	4	4	1	0.257070
8	4	4	2	0.306247
8	4	5	1	0.366437
8	4	5	2	0.605446
8	7	1	1	0.502258
8	7	1	2	1.059427
8	7	2	1	0.286163
8	7	2	2	0.374817
8	7	3	1	0.295088
8	7	3	2	0.364835
8	7	4	1	0.310446
8	7	4	2	0.439877
8	7	5	1	0.486811
8	7	5	2	1.005161
8	3	1	1	0.360770
8	3	1	2	0.587924
8	3	2	1	0.279143
8	3	2	2	0.357106
8	3	3	1	0.280358
8	3	3	2	0.346196
8	3	4	1	0.301833
8	3	4	2	0.416205
8	3	5	1	0.551002
8	3	5	2	1.234039
8	2	1	1	0.471770
8	2	1	2	0.952865
8	2	2	1	0.247702
8	2	2	2	0.293050
8	2	3	1	0.287219
8	2	3	2	0.355115
8	2	4	1	0.286163
8	2	4	2	0.374817
8	2	5	1	0.502258
8	2	5	2	1.059427
8	10	1	1	0.384103
8	10	1	2	0.660973
8	10	2	1	0.246131
8	10	2	2	0.288274
8	10	3	1	0.250401
8	10	3	2	0.298951
8	10	4	1	0.248895
8	10	4	2	0.290842
8	10	5	1	0.429105
8	10	5	2	0.807797
8	1	1	1	0.518107
8	1	1	2	1.115662
8	1	2	1	0.247069
8	1	2	2	0.288257
8	1	3	1	0.250401
8	1	3	2	0.298951
8	1	4	1	0.286163
8	1	4	2	0.374817
8	1	5	1	0.396426
8	1	5	2	0.700458
8	6	1	1	0.384103
8	6	1	2	0.660973
8	6	2	1	0.247702
8	6	2	2	0.293050
8	6	3	1	0.264683
8	6	3	2	0.323750
8	6	4	1	0.247702
8	6	4	2	0.293050
8	6	5	1	0.422358
8	6	5	2	0.785344
8	5	1	1	0.494484
8	5	1	2	1.032048
8	5	2	1	0.248870
8	5	2	2	0.295725
8	5	3	1	0.257483
8	5	3	2	0.312044
8	5	4	1	0.282583
8	5	4	2	0.365713
8	5	5	1	0.396426
8	5	5	2	0.700458
8	9	1	1	0.415716
8	9	1	2	0.763383
8	9	2	1	0.257070
8	9	2	2	0.306247
8	9	3	1	0.252324
8	9	3	2	0.302739
8	9	4	1	0.246870
8	9	4	2	0.290921
8	9	5	1	0.378104
8	9	5	2	0.641971
9	6	1	1	0.384103
9	6	1	2	0.660973
9	6	2	1	0.251580
9	6	2	2	0.295478
9	6	3	1	0.340328
9	6	3	2	0.413505
9	6	4	1	0.246187
9	6	4	2	0.287745
9	6	5	1	0.576712
9	6	5	2	1.327989
9	3	1	1	0.390210
9	3	1	2	0.680469
9	3	2	1	0.246187
9	3	2	2	0.287745
9	3	3	1	0.314502
9	3	3	2	0.386980
9	3	4	1	0.255055
9	3	4	2	0.302151
9	3	5	1	0.390210
9	3	5	2	0.680469
9	10	1	1	0.494484
9	10	1	2	1.032048
9	10	2	1	0.301833
9	10	2	2	0.416205
9	10	3	1	0.252324
9	10	3	2	0.302739
9	10	4	1	0.248870
9	10	4	2	0.295725
9	10	5	1	0.518107
9	10	5	2	1.115662
9	5	1	1	0.510132
9	5	1	2	1.087298
9	5	2	1	0.310446
9	5	2	2	0.439877
9	5	3	1	0.248870
9	5	3	2	0.295725
9	5	4	1	0.293733
9	5	4	2	0.394518
9	5	5	1	0.542629
9	5	5	2	1.203706
9	1	1	1	0.402749
9	1	1	2	0.720940
9	1	2	1	0.247870
9	1	2	2	0.289292
9	1	3	1	0.356456
9	1	3	2	0.428864
9	1	4	1	0.247069
9	1	4	2	0.288257
9	1	5	1	0.542629
9	1	5	2	1.203706
9	2	1	1	0.551002
9	2	1	2	1.234039
9	2	2	1	0.297717
9	2	2	2	0.405114
9	2	3	1	0.254672
9	2	3	2	0.307099
9	2	4	1	0.266846
9	2	4	2	0.327669
9	2	5	1	0.366437
9	2	5	2	0.605446
9	7	1	1	0.510132
9	7	1	2	1.087298
9	7	2	1	0.279143
9	7	2	2	0.357106
9	7	3	1	0.456768
9	7	3	2	0.513825
9	7	4	1	0.269695
9	7	4	2	0.334278
9	7	5	1	0.534355
9	7	5	2	1.173866
9	8	1	1	0.510132
9	8	1	2	1.087298
9	8	2	1	0.289880
9	8	2	2	0.384419
9	8	3	1	0.397708
9	8	3	2	0.465383
9	8	4	1	0.279143
9	8	4	2	0.357106
9	8	5	1	0.429105
9	8	5	2	0.807797
9	4	1	1	0.551002
9	4	1	2	1.234039
9	4	2	1	0.269695
9	4	2	2	0.334278
9	4	3	1	0.280358
9	4	3	2	0.346196
9	4	4	1	0.301833
9	4	4	2	0.416205
9	4	5	1	0.464402
9	4	5	2	0.927456
10	5	1	1	0.429105
10	5	1	2	0.807797
10	5	2	1	0.247702
10	5	2	2	0.293050
10	5	3	1	0.280358
10	5	3	2	0.346196
10	5	4	1	0.253223
10	5	4	2	0.298561
10	5	5	1	0.378104
10	5	5	2	0.641971
10	1	1	1	0.559473
10	1	1	2	1.264864
10	1	2	1	0.259262
10	1	2	2	0.310848
10	1	3	1	0.340328
10	1	3	2	0.413505
10	1	4	1	0.282583
10	1	4	2	0.365713
10	1	5	1	0.559473
10	1	5	2	1.264864
10	2	1	1	0.396426
10	2	1	2	0.700458
10	2	2	1	0.248870
10	2	2	2	0.295725
10	2	3	1	0.257483
10	2	3	2	0.312044
10	2	4	1	0.247069
10	2	4	2	0.288257
10	2	5	1	0.471770
10	2	5	2	0.952865
10	7	1	1	0.542629
10	7	1	2	1.203706
10	7	2	1	0.297717
10	7	2	2	0.405114
10	7	3	1	0.295088
10	7	3	2	0.364835
10	7	4	1	0.246504
10	7	4	2	0.287741
10	7	5	1	0.486811
10	7	5	2	1.005161
10	3	1	1	0.526181
10	3	1	2	1.144518
10	3	2	1	0.293733
10	3	2	2	0.394518
10	3	3	1	0.326472
10	3	3	2	0.399619
10	3	4	1	0.261626
10	3	4	2	0.315953
10	3	5	1	0.576712
10	3	5	2	1.327989
10	6	1	1	0.422358
10	6	1	2	0.785344
10	6	2	1	0.297717
10	6	2	2	0.405114
10	6	3	1	0.356456
10	6	3	2	0.428864
10	6	4	1	0.306076
10	6	4	2	0.427793
10	6	5	1	0.378104
10	6	5	2	0.641971
10	9	1	1	0.384103
10	9	1	2	0.660973
10	9	2	1	0.247870
10	9	2	2	0.289292
10	9	3	1	0.326472
10	9	3	2	0.399619
10	9	4	1	0.275847
10	9	4	2	0.348998
10	9	5	1	0.471770
10	9	5	2	0.952865
10	8	1	1	0.471770
10	8	1	2	0.952865
10	8	2	1	0.269695
10	8	2	2	0.334278
10	8	3	1	0.304119
10	8	3	2	0.375426
10	8	4	1	0.248870
10	8	4	2	0.295725
10	8	5	1	0.542629
10	8	5	2	1.203706
10	4	1	1	0.542629
10	4	1	2	1.203706
10	4	2	1	0.272696
10	4	2	2	0.341388
10	4	3	1	0.356456
10	4	3	2	0.428864
10	4	4	1	0.289880
10	4	4	2	0.384419
10	4	5	1	0.429105
10	4	5	2	0.807797
0	3	1	1	0.551002
0	3	1	2	1.234039
0	3	2	1	0.279143
0	3	2	2	0.357106
0	3	3	1	0.260803
0	3	3	2	0.317588
0	3	4	1	0.297717
0	3	4	2	0.405114
0	3	5	1	0.435957
0	3	5	2	0.830744
0	8	1	1	0.464402
0	8	1	2	0.927456
0	8	2	1	0.272696
0	8	2	2	0.341388
0	8	3	1	0.295088
0	8	3	2	0.364835
0	8	4	1	0.275847
0	8	4	2	0.348998
0	8	5	1	0.372215
0	8	5	2	0.623462
0	7	1	1	0.429105
0	7	1	2	0.807797
0	7	2	1	0.261626
0	7	2	2	0.315953
0	7	3	1	0.397708
0	7	3	2	0.465383
0	7	4	1	0.301833
0	7	4	2	0.416205
0	7	5	1	0.396426
0	7	5	2	0.700458
0	6	1	1	0.384103
0	6	1	2	0.660973
0	6	2	1	0.246504
0	6	2	2	0.287741
0	6	3	1	0.340328
0	6	3	2	0.413505
0	6	4	1	0.275847
0	6	4	2	0.348998
0	6	5	1	0.559473
0	6	5	2	1.264864
0	10	1	1	0.502258
0	10	1	2	1.059427
0	10	2	1	0.246131
0	10	2	2	0.288274
0	10	3	1	0.304119
0	10	3	2	0.375426
0	10	4	1	0.246870
0	10	4	2	0.290921
0	10	5	1	0.494484
0	10	5	2	1.032048
0	5	1	1	0.422358
0	5	1	2	0.785344
0	5	2	1	0.279143
0	5	2	2	0.357106
0	5	3	1	0.260803
0	5	3	2	0.317588
0	5	4	1	0.279143
0	5	4	2	0.357106
0	5	5	1	0.510132
0	5	5	2	1.087298
0	2	1	1	0.502258
0	2	1	2	1.059427
0	2	2	1	0.247702
0	2	2	2	0.293050
0	2	3	1	0.340328
0	2	3	2	0.413505
0	2	4	1	0.247870
0	2	4	2	0.289292
0	2	5	1	0.435957
0	2	5	2	0.830744
0	1	1	1	0.390210
0	1	1	2	0.680469
0	1	2	1	0.297717
0	1	2	2	0.405114
0	1	3	1	0.274382
0	1	3	2	0.338023
0	1	4	1	0.255055
0	1	4	2	0.302151
0	1	5	1	0.486811
0	1	5	2	1.005161
0	9	1	1	0.372215
0	9	1	2	0.623462
0	9	2	1	0.246870
0	9	2	2	0.290921
0	9	3	1	0.456768
0	9	3	2	0.513825
0	9	4	1	0.251580
0	9	4	2	0.295478
0	9	5	1	0.415716
0	9	5	2	0.763383
0	4	1	1	0.435957
0	4	1	2	0.830744
0	4	2	1	0.301833
0	4	2	2	0.416205
0	4	3	1	0.326472
0	4	3	2	0.399619
0	4	4	1	0.253223
0	4	4	2	0.298561
0	4	5	1	0.471770
0	4	5	2	0.952865
3	0	1	1	0.372215
3	0	1	2	0.623462
3	0	2	1	0.289880
3	0	2	2	0.384419
3	0	3	1	0.254672
3	0	3	2	0.307099
3	0	4	1	0.246353
3	0	4	2	0.289331
3	0	5	1	0.415716
3	0	5	2	0.763383
8	0	1	1	0.542629
8	0	1	2	1.203706
8	0	2	1	0.247702
8	0	2	2	0.293050
8	0	3	1	0.287219
8	0	3	2	0.355115
8	0	4	1	0.269695
8	0	4	2	0.334278
8	0	5	1	0.518107
8	0	5	2	1.115662
7	0	1	1	0.542629
7	0	1	2	1.203706
7	0	2	1	0.282583
7	0	2	2	0.365713
7	0	3	1	0.456768
7	0	3	2	0.513825
7	0	4	1	0.253223
7	0	4	2	0.298561
7	0	5	1	0.568043
7	0	5	2	1.296180
6	0	1	1	0.402749
6	0	1	2	0.720940
6	0	2	1	0.246504
6	0	2	2	0.287741
6	0	3	1	0.260803
6	0	3	2	0.317588
6	0	4	1	0.306076
6	0	4	2	0.427793
6	0	5	1	0.486811
6	0	5	2	1.005161
10	0	1	1	0.442913
10	0	1	2	0.854183
10	0	2	1	0.248870
10	0	2	2	0.295725
10	0	3	1	0.356456
10	0	3	2	0.428864
10	0	4	1	0.253223
10	0	4	2	0.298561
10	0	5	1	0.384103
10	0	5	2	0.660973
5	0	1	1	0.384103
5	0	1	2	0.660973
5	0	2	1	0.269695
5	0	2	2	0.334278
5	0	3	1	0.280358
5	0	3	2	0.346196
5	0	4	1	0.310446
5	0	4	2	0.439877
5	0	5	1	0.449973
5	0	5	2	0.878115
2	0	1	1	0.542629
2	0	1	2	1.203706
2	0	2	1	0.306076
2	0	2	2	0.427793
2	0	3	1	0.304119
2	0	3	2	0.375426
2	0	4	1	0.279143
2	0	4	2	0.357106
2	0	5	1	0.479240
2	0	5	2	0.978767
1	0	1	1	0.510132
1	0	1	2	1.087298
1	0	2	1	0.246504
1	0	2	2	0.287741
1	0	3	1	0.264683
1	0	3	2	0.323750
1	0	4	1	0.269695
1	0	4	2	0.334278
1	0	5	1	0.494484
1	0	5	2	1.032048
4	0	1	1	0.542629
4	0	1	2	1.203706
4	0	2	1	0.259262
4	0	2	2	0.310848
4	0	3	1	0.424417
4	0	3	2	0.487653
4	0	4	1	0.264155
4	0	4	2	0.321560
4	0	5	1	0.502258
4	0	5	2	1.059427
9	0	1	1	0.534355
9	0	1	2	1.173866
9	0	2	1	0.247702
9	0	2	2	0.293050
9	0	3	1	0.254672
9	0	3	2	0.307099
9	0	4	1	0.247069
9	0	4	2	0.288257
9	0	5	1	0.551002
9	0	5	2	1.234039
;
